[VALIDATOR STDOUT]
Checking plan: /home/jfan5/Safety-gen/runs/benchmark/optic/ferry_20260205_113042/ferry/optic_results/ferry-l41-c21-s41001.plan
Plan executed successfully - checking goal
Plan valid
Final value: 96 

Successful plans:
Value: 96
 /home/jfan5/Safety-gen/runs/benchmark/optic/ferry_20260205_113042/ferry/optic_results/ferry-l41-c21-s41001.plan 96
